225
756
403
768
190
162
792
612
408
760
30
470
576
200
344
96
441
468
252
585
105
624
656
310
912
259
130
528
99
200
360
551
690
612
425
630
589
539
266
81
225
34
510
41
570
517
370
208
645
512
700
546
112
782
245
104
714
372
816
74
54
176
594
816
320
87
470
252
475
129
352
147
114
252
360
476
832
738
420
288
148
26
704
594
150
702
435
184
70
500
546
527
539
532
270
220
374
765
80
420
846
36
130
602
608
350
312
84
540
315
312
287
31
624
74
54
264
231
100
240
493
644
396
275
42
352
245
228
280
180
136
510
205
30
611
518
416
86
132
550
117
252
506
665
988
210
31
192
494
378
352
238
867
200
145
235
180
225
86
64
539
312
532
225
210
312
82
360
624
185
26
176
660
100
120
116
322
315
450
420
217
392
722
108
315
272
306
492
180
799
468
104
301
192
400
780
252
506
490
520
451
